3 
4  47 
5  02 17 33 48 
6  04 18 33 48 
7  03 18 33 48 
8  03 18 33 48 
9  03 18 33 48 
10  03 19 34 49 
11  04 19 34 49 
12  04 19 34 49 
13  04 19 34 49 
14  04 19 34 50 
15  05 20 35 50 
16  05 20 35 50 
17  05 20 35 50 
18  07 27 42 57 
19  12 27 42 57 
20  14 28 43 58 
21  13 
22 
